nbNodes = 12;
nbVehi = 3;
nbServi = 4;

e = 
 [ 0,  388,  436,  104,  220,   70,  328,  398,  446,  177,  359,    0,];

l = 
 [480, 480, 520, 166, 320, 151, 407, 504, 519, 244, 459, 480,];

a = 
 [|  1,  0,  1,  1,
 |  0,  1,  0,  1,
 |  1,  0,  1,  0,
 |];

p = array3d(1..nbNodes,1..nbVehi,1..nbServi,
[  0,  0,  0,  0,	  0,  0,  0,  0,	  0,  0,  0,  0,	
 54, 61, 10, 28,	 46, 53, 27, 58,	 52, 20, 51, 48,	
 49, 10, 36, 27,	 15, 41, 41, 57,	 33, 15, 43, 36,	
 45, 31, 49, 31,	 12, 31, 35, 28,	 17, 11, 54, 34,	
 61, 16, 53, 29,	 37, 30, 30, 67,	 10, 65, 59, 16,	
 13, 51, 45, 13,	 42, 43, 23, 29,	 20, 14, 55, 23,	
 14, 54, 31, 32,	 59, 16, 45, 34,	 11, 48, 51, 54,	
 24, 52, 48, 22,	 57, 53, 42, 38,	 57, 12, 33, 18,	
 44, 20, 19, 38,	 13, 11, 25, 54,	 41, 29, 54, 45,	
 56, 62, 52, 47,	 19, 46, 14, 16,	 12, 37, 24, 36,	
 33, 59, 36, 44,	 38, 59, 16, 28,	 56, 22, 39, 16,	
  0,  0,  0,  0,	  0,  0,  0,  0,	  0,  0,  0,  0,	
]);

rs = 
[|  true,  true,  true,  true,	 	
|  false,  false,  true,  false,	  	
|  true,  false,  false,  false,	  	
|  false,  false,  false,  true,	  	
|  false,  false,  false,  true,	  	
|  true,  false,  false,  false,	  	
|  true,  false,  false,  false,	  	
|  false,  false,  false,  true,	  	
|  false,  true,  false,  false,	  	
|  false,  true,  false,  false,	  	
|  false,  false,  true,  false,	  	
|  true,  true,  true,  true,	  	
|];

d=[|0, 24, 0, 0, 10, 3, 13, 25, 3, 11, 2, 0, 
|24, 0, 24, 24, 34, 21, 36, 33, 27, 31, 23, 24, 
|0, 24, 0, 0, 10, 3, 13, 25, 3, 11, 2, 0, 
|0, 24, 0, 0, 10, 3, 13, 25, 3, 11, 2, 0, 
|10, 34, 10, 10, 0, 13, 7, 26, 7, 12, 11, 10, 
|3, 21, 3, 3, 13, 0, 15, 26, 6, 12, 4, 3, 
|13, 36, 13, 13, 7, 15, 0, 34, 10, 6, 15, 13, 
|25, 33, 25, 25, 26, 26, 34, 0, 26, 36, 23, 25, 
|3, 27, 3, 3, 7, 6, 10, 26, 0, 9, 5, 3, 
|11, 31, 11, 11, 12, 12, 6, 36, 9, 0, 13, 11, 
|2, 23, 2, 2, 11, 4, 15, 23, 5, 13, 0, 2, 
|0, 24, 0, 0, 10, 3, 13, 25, 3, 11, 2, 0, 
|];
